
  22   10
  10   10   10   10   10   10   10   10   10   10

   0   0   0   0   0   0   0   0   0   0   0   2 2 12 
   9  10   0   0   0   0   0   0   0   0   0   1 3 
   4   0   0  10   0   0   0   0   0   0   0   1 4 
   6   0  10   0   0   0   0   0   0   0   0   1 5 
   5   0   0   0   0   0   0  10   0   0   0   1 6 
   9   0   0  10   0   0   0   0   0   0   0   1 7 
   3   0   0   0   0   0   0   0   0  10   0   2 21 8 
   1   0  10   0   0   0   0   0   0   0   0   1 9 
  10   0   0   0  10   0   0   0   0   0   0   1 10 
   6   0   0  10   0   0   0   0   0   0   0   1 11 
   1   0  10   0   0   0   0   0   0   0   0   1 13 
   6   0   0  10   0   0   0   0   0   0   0   1 13 
   8   0   0  10   0   0   0   0   0   0   0   1 14 
   5   0   0   0   0   0   0   0   0   0  10   1 15 
   6   0   0   0   0   0  10   0   0   0   0   1 16 
   3   0   0   0   0   0   0  10   0   0   0   1 17 
   3   0   0   0   0   0  10   0   0   0   0   1 18 
   7   0  10   0   0   0   0   0   0   0   0   1 19 
   6  10   0   0   0   0   0   0   0   0   0   1 20 
   9   0   0   0   0   0   0   0   0   0  10   1 22
   9   0   0   0   0   0   0   0   0  10   0   1 22
   0   0   0   0   0   0   0   0   0   0   0   0 
